c   #vars: 73   #clauses: 335   #literals: 926
c 
p cnf 73 335
-1 -2 0
-3 -4 0
-5 -6 0
-7 -8 0
12 33 34 -39 0
32 -57 72 73 0
-13 -14 0
17 -59 63 64 0
-15 -16 0
-18 -19 0
-20 -21 0
-22 -23 0
-24 -25 0
-26 -27 0
-28 -29 0
-30 -31 0
41 -50 63 64 0
-33 -34 0
-35 -36 0
-37 -38 0
-39 -40 0
-24 46 55 56 0
22 23 72 73 0
-42 -43 0
-44 -45 0
18 19 -39 49 0
24 25 47 48 0
24 25 50 51 0
-47 -48 0
1 2 -26 52 0
-50 -51 0
-39 42 43 65 0
-53 -54 0
-55 -56 0
35 36 59 60 0
1 2 35 36 0
-57 -58 0
-59 -60 0
37 38 53 54 0
18 19 37 38 0
-61 -62 0
-63 -64 0
24 25 57 58 0
-66 -67 0
18 19 68 69 0
-68 -69 0
1 2 63 64 0
-70 -71 0
5 6 70 71 0
-1 -26 0
-2 -27 0
41 50 51 -63 0
-1 -35 0
-2 -36 0
3 4 72 73 0
-1 -39 0
-2 -40 0
-13 42 43 65 0
-2 -52 0
7 8 47 48 0
-1 -57 0
-2 -58 0
22 23 70 71 0
-1 -63 0
-2 -64 0
-10 -11 0
-3 -35 0
-4 -36 0
10 11 39 40 0
-3 -47 0
-4 -48 0
-3 -68 0
-4 -69 0
20 21 57 58 0
-3 -72 0
-4 -73 0
7 8 70 71 0
-5 -26 0
-6 -27 0
7 8 61 62 0
-5 -42 0
-6 -43 0
7 8 30 31 0
-5 -44 0
-6 -45 0
7 8 66 67 0
-5 -50 0
-6 -51 0
22 23 50 51 0
-5 -55 0
-6 -56 0
39 40 -42 65 0
-5 -70 0
-6 -71 0
30 31 59 60 0
-7 -30 0
-8 -31 0
13 14 70 71 0
-7 -44 0
-8 -45 0
-7 -47 0
-8 -48 0
37 38 63 64 0
-7 -61 0
-8 -62 0
24 25 35 36 0
-7 -66 0
-8 -67 0
-7 -70 0
-8 -71 0
12 -30 33 34 0
-9 -29 0
3 4 35 36 0
12 30 31 -39 0
-9 -62 0
9 28 29 -68 0
12 30 31 -33 0
-9 -69 0
-10 -39 0
-11 -40 0
-10 -42 0
-11 -43 0
-10 -44 0
-11 -45 0
-1 26 27 52 0
-10 -72 0
-11 -73 0
-72 -73 0
-13 32 72 73 0
-12 -31 0
-20 39 40 49 0
-12 -34 0
44 45 53 54 0
-12 -40 0
-13 -28 0
-14 -29 0
10 11 44 45 0
-20 41 63 64 0
-14 -32 0
-18 39 40 49 0
-13 -33 0
-14 -34 0
9 28 29 -61 0
-13 -44 0
-14 -45 0
-20 26 27 52 0
-14 -65 0
-13 -70 0
-14 -71 0
17 -55 63 64 0
13 14 32 -72 0
-20 24 25 46 0
-13 32 57 58 0
24 25 68 69 0
17 59 60 -63 0
13 14 32 -57 0
13 14 28 29 0
-15 -26 0
-16 -27 0
28 29 70 71 0
-15 -35 0
-16 -36 0
28 29 66 67 0
-15 -47 0
-16 -48 0
22 23 28 29 0
-15 -57 0
-16 -58 0
12 -33 39 40 0
-15 -72 0
-16 -73 0
12 -30 39 40 0
32 57 58 -72 0
-17 -56 0
24 25 42 43 0
-17 -60 0
5 6 44 45 0
-17 -64 0
-18 -30 0
-19 -31 0
9 -61 68 69 0
-18 -37 0
-19 -38 0
15 16 26 27 0
-18 -39 0
-19 -40 0
13 14 44 45 0
1 2 -20 52 0
-19 -49 0
33 34 55 56 0
-18 -53 0
-19 -54 0
47 48 57 58 0
-18 -66 0
-19 -67 0
18 19 53 54 0
-18 -68 0
-19 -69 0
1 2 57 58 0
-20 46 55 56 0
-21 -41 0
18 19 -20 49 0
-21 -46 0
3 4 47 48 0
20 21 -26 52 0
-21 -49 0
13 14 -42 65 0
-21 -52 0
-20 -57 0
-21 -58 0
47 48 59 60 0
-22 -28 0
-23 -29 0
-20 41 50 51 0
-22 -50 0
-23 -51 0
17 -55 59 60 0
-22 -70 0
-23 -71 0
1 2 26 27 0
-22 -72 0
-23 -73 0
5 6 42 43 0
-24 -35 0
-25 -36 0
-24 -42 0
-25 -43 0
-13 39 40 65 0
20 21 -39 49 0
-25 -46 0
-24 -47 0
-25 -48 0
42 43 72 73 0
-24 -50 0
-25 -51 0
18 19 39 40 0
33 34 68 69 0
-24 -57 0
-25 -58 0
18 19 30 31 0
-24 -68 0
-25 -69 0
1 2 39 40 0
13 14 -39 65 0
-27 -52 0
44 45 68 69 0
24 25 46 -55 0
9 61 62 -68 0
-26 -66 0
-27 -67 0
13 14 33 34 0
-28 -55 0
-29 -56 0
-28 -66 0
-29 -67 0
9 -28 68 69 0
-28 -70 0
-29 -71 0
5 6 50 51 0
-30 -59 0
-31 -60 0
15 16 47 48 0
-30 -61 0
-31 -62 0
10 11 72 73 0
20 21 41 -63 0
-32 -58 0
44 45 59 60 0
20 21 41 -50 0
-32 -73 0
-33 -55 0
-34 -56 0
17 55 56 -59 0
-33 -63 0
-34 -64 0
15 16 35 36 0
-33 -68 0
-34 -69 0
10 11 42 43 0
-35 -50 0
-36 -51 0
-35 -59 0
-36 -60 0
7 8 44 45 0
-37 -53 0
-38 -54 0
26 27 66 67 0
-37 -61 0
-38 -62 0
-37 -63 0
-38 -64 0
17 55 56 -63 0
-1 20 21 52 0
-40 -49 0
28 29 55 56 0
-39 -53 0
-40 -54 0
15 16 57 58 0
-39 -55 0
-40 -56 0
35 36 50 51 0
-40 -65 0
39 40 55 56 0
20 21 46 -55 0
-41 -51 0
39 40 53 54 0
20 21 -24 46 0
-41 -64 0
33 34 63 64 0
9 -28 61 62 0
-43 -65 0
-42 -72 0
-43 -73 0
5 6 55 56 0
-44 -53 0
-45 -54 0
30 31 61 62 0
-44 -59 0
-45 -60 0
18 19 66 67 0
-44 -68 0
-45 -69 0
5 6 26 27 0
-18 20 21 49 0
-46 -56 0
47 48 50 51 0
-47 -50 0
-48 -51 0
3 4 68 69 0
-47 -57 0
-48 -58 0
37 38 61 62 0
-47 -59 0
-48 -60 0
15 16 72 73 0
